21 = ndim
48 = nblocks
17 1 1 1 1 1 1 1 1 1 1 1 1 1 1 1 1 1 1 1 1 1 1 1 1 1 1 1 1 1 1 1 1 1 1 1 1 1 1 1 1 1 1 1 1 1 1 1 = blockstruct
1.0, 0.0, 0.0, 0.0, 0.0, 0.0, 0.0, 0.0, 0.0, 0.0, 0.0, 0.0, 0.0, 0.0, 0.0, 0.0, 0.0, 0.0, 0.0, 0.0, 0.0 = objcoeffs
0 1 1 1 1.0527591745e-10
0 1 1 2 6.3999616337
0 1 1 3 -2.3397016594
0 1 1 4 0.105733018699
0 1 1 5 0.101777461811
0 1 1 6 -1.58121308494
0 1 1 7 -0.609973855169
0 1 1 8 8.44909627358
0 1 1 9 -4.72962107721
0 1 1 10 -4.70540216374e-06
0 1 1 11 -0.000384855808434
0 1 1 12 -5.73050298759e-06
0 1 1 13 -8.19742871965e-07
0 1 1 14 -8.19742871965e-07
0 1 1 15 -0.000364920831307
0 1 1 16 1.12030695211e-05
0 1 1 17 4.25833261419e-06
0 1 2 2 -1.0
0 1 3 3 -1.0
0 1 4 4 -1.0
0 1 5 5 -1.0
0 1 6 6 -1.0
0 1 7 7 -1.0
0 1 8 8 -1.0
0 1 9 9 -1.0
0 1 10 10 -1.0
0 1 11 11 -1.0
0 1 12 12 -1.0
0 1 13 13 -1.0
0 1 14 14 -1.0
0 1 15 15 -1.0
0 1 16 16 -1.0
0 1 17 17 -1.0
0 2 1 1 1e-06
0 3 1 1 1e-06
0 4 1 1 1e-06
0 5 1 1 1e-06
0 6 1 1 1e-06
0 7 1 1 -15.138999
0 8 1 1 14.939001
0 9 1 1 1.383051
0 10 1 1 -1.396949
0 11 1 1 1.311411
0 12 1 1 -1.324589
0 13 1 1 0.816896
0 14 1 1 -0.825104
0 15 1 1 0.765156
0 16 1 1 -0.772844
0 17 1 1 0.683566
0 18 1 1 -0.690434
0 19 1 1 1e-06
0 20 1 1 1e-06
0 21 1 1 1e-06
0 22 1 1 1e-06
0 23 1 1 1e-06
0 24 1 1 1e-06
0 25 1 1 1e-06
0 26 1 1 1e-06
0 27 1 1 1e-06
0 28 1 1 1e-06
0 29 1 1 1e-06
0 30 1 1 1e-06
0 31 1 1 1e-06
0 32 1 1 1e-06
0 33 1 1 1e-06
0 34 1 1 1e-06
0 35 1 1 1e-06
0 36 1 1 1e-06
0 37 1 1 1e-06
0 38 1 1 1e-06
0 39 1 1 1e-06
0 40 1 1 1e-06
0 41 1 1 1e-06
0 42 1 1 1e-06
0 43 1 1 1e-06
0 44 1 1 1e-06
0 45 1 1 1e-06
0 46 1 1 1e-06
0 47 1 1 1e-06
0 48 1 1 1e-06
1 1 1 1 1.0
2 1 1 11 -0.000276874682327
2 2 1 1 1.0
2 7 1 1 -1.0
2 8 1 1 1.0
2 9 1 1 1.0
2 10 1 1 -1.0
2 19 1 1 0.0852150991559
2 20 1 1 0.0853551030159
2 21 1 1 0.0756699964404
2 22 1 1 0.05610819906
2 23 1 1 0.0848226025701
2 24 1 1 0.0850974991918
3 1 1 12 -0.000276874682327
3 19 1 1 1.0
3 20 1 1 -1.0
4 1 1 13 -0.000276874682327
4 21 1 1 1.0
4 22 1 1 -1.0
5 1 1 14 -0.000276874682327
5 23 1 1 1.0
5 24 1 1 -1.0
6 1 1 15 -0.000276874682327
6 3 1 1 1.0
6 7 1 1 -1.0
6 8 1 1 1.0
6 11 1 1 1.0
6 12 1 1 -1.0
6 25 1 1 0.0364000014961
6 26 1 1 0.0380599983037
6 27 1 1 0.11400000006
6 28 1 1 0.105999998748
6 29 1 1 0.0399499982595
6 30 1 1 0.0499899983406
7 1 1 2 16.2434289748
7 1 1 3 -7.40528970937
7 1 1 4 -1.6639399559
7 1 1 5 -1.38228806851
7 1 1 6 -11.0977659227
7 1 1 7 7.66388345485
7 1 1 8 -22.6057568507
7 25 1 1 1.0
7 26 1 1 -1.0
8 1 1 16 -0.000276874682327
8 27 1 1 1.0
8 28 1 1 -1.0
9 1 1 2 -10.0938801857
9 1 1 3 13.6918527143
9 1 1 4 1.35182245926
9 1 1 5 1.17773472423
9 1 1 6 12.5451984487
9 1 1 7 -1.53308277573
9 1 1 8 18.7945576152
9 1 1 9 -10.1441141263
9 29 1 1 1.0
9 30 1 1 -1.0
10 1 1 2 -1.56455139061
10 1 1 3 2.12223711893
10 1 1 4 0.209532476073
10 1 1 5 0.182548877802
10 1 1 6 1.9445057121
10 1 1 7 -0.23762782444
10 1 1 8 2.91315635929
10 1 1 9 -1.57233765122
10 4 1 1 1.0
10 7 1 1 -1.0
10 8 1 1 1.0
10 13 1 1 1.0
10 14 1 1 -1.0
10 31 1 1 0.0320999994874
10 32 1 1 0.0322099998593
10 33 1 1 0.107539996505
10 34 1 1 0.0844900012016
10 35 1 1 0.0465499982238
10 36 1 1 0.0365599989891
11 1 1 2 -30.8842688917
11 1 1 3 0.826559815219
11 1 1 4 1.76160286808
11 1 1 5 1.41526053961
11 1 1 6 12.2994217715
11 1 1 7 -18.8342019166
11 31 1 1 1.0
11 32 1 1 -1.0
12 1 1 10 -0.000276874682327
12 33 1 1 1.0
12 34 1 1 -1.0
13 1 1 2 19.8599204602
13 1 1 3 -34.1749648799
13 1 1 4 -1.90127495284
13 1 1 5 -1.68007968197
13 1 1 6 -28.5487771126
13 35 1 1 1.0
13 36 1 1 -1.0
14 1 1 2 1.11653787808
14 1 1 3 -2.49138313466
14 1 1 4 -0.047139644918
14 1 1 5 -0.044261881272
14 1 1 6 -1.90957919873
14 1 1 7 -0.237627817564
14 1 1 8 2.91315627499
14 1 1 9 -1.57233760572
14 5 1 1 1.0
14 7 1 1 -1.0
14 8 1 1 1.0
14 15 1 1 1.0
14 16 1 1 -1.0
14 37 1 1 0.0333399996161
14 38 1 1 0.0336100012064
14 39 1 1 0.0620100013912
14 40 1 1 0.0548200011253
14 41 1 1 0.0593600012362
14 42 1 1 0.039390001446
15 1 1 2 10.825201015
15 1 1 3 -56.0241139553
15 37 1 1 1.0
15 38 1 1 -1.0
16 1 1 17 -0.000276874682327
16 39 1 1 1.0
16 40 1 1 -1.0
17 1 1 2 50.1824628205
17 41 1 1 1.0
17 42 1 1 -1.0
18 1 1 2 7.61860768369
18 1 1 3 -2.37933483556
18 1 1 4 -0.0471396265156
18 1 1 5 -0.0442618651961
18 1 1 6 -1.90957900797
18 1 1 7 -0.237627834484
18 1 1 8 2.91315648241
18 1 1 9 -1.57233771767
18 6 1 1 1.0
18 7 1 1 -1.0
18 8 1 1 1.0
18 17 1 1 1.0
18 18 1 1 -1.0
18 43 1 1 0.0266699995846
18 44 1 1 0.0265299994498
18 45 1 1 0.0290699992329
18 46 1 1 0.0116600003093
18 47 1 1 0.0481700003147
18 48 1 1 0.0482000000775
19 1 1 2 -10.5629670524
19 1 1 3 49.793140211
19 1 1 4 20.6021206808
19 1 1 5 -7.03543628888
19 43 1 1 1.0
19 44 1 1 -1.0
20 1 1 2 -4.63220815209
20 1 1 3 23.4272044878
20 1 1 4 -21.4509940324
20 45 1 1 1.0
20 46 1 1 -1.0
21 1 1 2 50.1824628205
21 47 1 1 1.0
21 48 1 1 -1.0
